38
0
61
88
46
34
40
31
0
59
0
32
58
67
101
202
43
28
44
59
42
0
93
56
64
55
82
89
47
54
39
47
53
70
47
47
0
36
0
0
56
0
45
74
76
54
45
94
41
46
60
0
78
48
73
34
52
33
41
81
59
0
92
72
46
53
56
53
59
51
59
39
46
120
72
47
59
76
30
52
51
57
0
38
46
61
0
26
0
88
44
43
34
51
47
77
47
120
40
52
